c Standarized MaxSat Instance
c{
c "sha1sum": "5be017c235c89b4092cbcd0baf9a830660f8b8f4",
c "nvars": 40,
c "ncls": 742,
c "nhards": 0,
c "nhard_len_stats":
c    { "min": 0, "max": 0, "ave": 0.00,
c      "stddev": 0.00 },
c "nsofts": 742,
c "nsoft_len_stats":
c    { "min": 2, "max": 2, "ave": 2.00,
c      "stddev": 0.00 },
c "nsoft_wts": 10,
c "soft_wt_stats":
c    { "min": 1, "max": 10, "ave": 5.69,
c      "stddev": 2.86 }
c}
c------------------------------------------------------------
c File  p_hat1000-2.clq
c
c Source: P. Soriano and M. Gendreau at  patrick@crt.umontreal.ca
c
c Reference: p-hat graphs are generated with the p-hat generator
c 	      which is a generalization of the classical uniform
c 	      random graph generator.
c 	      Graphs generated with p-hat have wider node degree spread
c 	      and larger cliques than uniform graphs.
c
c NOTE: September 23, 1993 Corrected corrupted file at DIMACS.
c
c
c Generation parameters: 
c 	n =   1000 a =  0.00  b =  1.00  Expected density =  0.50
c	Seed =      22013       Real density =  0.490
c
p wcnf 40 742 4225
9 1 2 0
9 -1 -2 0
4 1 3 0
4 -1 -3 0
8 1 4 0
8 -1 -4 0
8 1 5 0
8 -1 -5 0
10 1 8 0
10 -1 -8 0
2 1 10 0
2 -1 -10 0
4 1 12 0
4 -1 -12 0
8 1 17 0
8 -1 -17 0
3 1 21 0
3 -1 -21 0
6 1 25 0
6 -1 -25 0
5 1 27 0
5 -1 -27 0
7 1 31 0
7 -1 -31 0
4 1 33 0
4 -1 -33 0
6 1 35 0
6 -1 -35 0
10 1 36 0
10 -1 -36 0
10 1 37 0
10 -1 -37 0
7 1 40 0
7 -1 -40 0
8 2 5 0
8 -2 -5 0
2 2 11 0
2 -2 -11 0
7 2 12 0
7 -2 -12 0
1 2 14 0
1 -2 -14 0
3 2 17 0
3 -2 -17 0
2 2 22 0
2 -2 -22 0
9 2 24 0
9 -2 -24 0
2 2 25 0
2 -2 -25 0
5 2 31 0
5 -2 -31 0
2 2 35 0
2 -2 -35 0
2 2 37 0
2 -2 -37 0
10 3 5 0
10 -3 -5 0
3 3 8 0
3 -3 -8 0
6 3 10 0
6 -3 -10 0
9 3 12 0
9 -3 -12 0
7 3 17 0
7 -3 -17 0
3 3 18 0
3 -3 -18 0
7 3 19 0
7 -3 -19 0
6 3 20 0
6 -3 -20 0
5 3 21 0
5 -3 -21 0
10 3 23 0
10 -3 -23 0
3 3 24 0
3 -3 -24 0
8 3 25 0
8 -3 -25 0
6 3 26 0
6 -3 -26 0
8 3 28 0
8 -3 -28 0
5 3 30 0
5 -3 -30 0
9 3 32 0
9 -3 -32 0
3 3 33 0
3 -3 -33 0
4 3 34 0
4 -3 -34 0
9 3 35 0
9 -3 -35 0
10 3 36 0
10 -3 -36 0
1 3 38 0
1 -3 -38 0
10 3 39 0
10 -3 -39 0
6 3 40 0
6 -3 -40 0
1 4 6 0
1 -4 -6 0
2 4 7 0
2 -4 -7 0
7 4 10 0
7 -4 -10 0
9 4 14 0
9 -4 -14 0
4 4 17 0
4 -4 -17 0
1 4 18 0
1 -4 -18 0
1 4 19 0
1 -4 -19 0
5 4 22 0
5 -4 -22 0
1 4 26 0
1 -4 -26 0
3 4 34 0
3 -4 -34 0
10 4 35 0
10 -4 -35 0
10 4 36 0
10 -4 -36 0
9 4 39 0
9 -4 -39 0
3 5 6 0
3 -5 -6 0
6 5 8 0
6 -5 -8 0
4 5 11 0
4 -5 -11 0
8 5 12 0
8 -5 -12 0
6 5 14 0
6 -5 -14 0
7 5 15 0
7 -5 -15 0
6 5 16 0
6 -5 -16 0
1 5 17 0
1 -5 -17 0
5 5 19 0
5 -5 -19 0
10 5 20 0
10 -5 -20 0
10 5 22 0
10 -5 -22 0
8 5 23 0
8 -5 -23 0
3 5 26 0
3 -5 -26 0
8 5 27 0
8 -5 -27 0
7 5 30 0
7 -5 -30 0
4 5 31 0
4 -5 -31 0
7 5 32 0
7 -5 -32 0
2 5 33 0
2 -5 -33 0
5 5 35 0
5 -5 -35 0
9 5 36 0
9 -5 -36 0
9 5 38 0
9 -5 -38 0
4 5 39 0
4 -5 -39 0
3 5 40 0
3 -5 -40 0
9 6 7 0
9 -6 -7 0
4 6 8 0
4 -6 -8 0
7 6 10 0
7 -6 -10 0
10 6 11 0
10 -6 -11 0
6 6 12 0
6 -6 -12 0
7 6 14 0
7 -6 -14 0
9 6 21 0
9 -6 -21 0
5 6 23 0
5 -6 -23 0
10 6 24 0
10 -6 -24 0
4 6 25 0
4 -6 -25 0
9 6 26 0
9 -6 -26 0
7 6 30 0
7 -6 -30 0
10 6 31 0
10 -6 -31 0
5 6 32 0
5 -6 -32 0
3 6 33 0
3 -6 -33 0
10 6 34 0
10 -6 -34 0
10 6 36 0
10 -6 -36 0
2 6 37 0
2 -6 -37 0
9 6 38 0
9 -6 -38 0
7 6 40 0
7 -6 -40 0
5 7 10 0
5 -7 -10 0
7 7 14 0
7 -7 -14 0
3 7 15 0
3 -7 -15 0
8 7 16 0
8 -7 -16 0
4 7 17 0
4 -7 -17 0
5 7 25 0
5 -7 -25 0
3 7 26 0
3 -7 -26 0
2 7 31 0
2 -7 -31 0
3 7 32 0
3 -7 -32 0
6 7 36 0
6 -7 -36 0
5 8 10 0
5 -8 -10 0
2 8 14 0
2 -8 -14 0
10 8 16 0
10 -8 -16 0
2 8 17 0
2 -8 -17 0
2 8 20 0
2 -8 -20 0
5 8 21 0
5 -8 -21 0
8 8 25 0
8 -8 -25 0
10 8 30 0
10 -8 -30 0
10 8 31 0
10 -8 -31 0
7 8 32 0
7 -8 -32 0
4 8 33 0
4 -8 -33 0
8 9 11 0
8 -9 -11 0
4 9 14 0
4 -9 -14 0
3 9 15 0
3 -9 -15 0
3 9 17 0
3 -9 -17 0
6 9 18 0
6 -9 -18 0
3 9 19 0
3 -9 -19 0
2 9 22 0
2 -9 -22 0
8 9 25 0
8 -9 -25 0
2 9 30 0
2 -9 -30 0
8 9 35 0
8 -9 -35 0
2 9 36 0
2 -9 -36 0
8 9 40 0
8 -9 -40 0
1 10 11 0
1 -10 -11 0
10 10 13 0
10 -10 -13 0
1 10 15 0
1 -10 -15 0
6 10 17 0
6 -10 -17 0
2 10 18 0
2 -10 -18 0
3 10 19 0
3 -10 -19 0
8 10 20 0
8 -10 -20 0
8 10 22 0
8 -10 -22 0
7 10 24 0
7 -10 -24 0
10 10 25 0
10 -10 -25 0
7 10 26 0
7 -10 -26 0
8 10 27 0
8 -10 -27 0
1 10 28 0
1 -10 -28 0
2 10 29 0
2 -10 -29 0
6 10 30 0
6 -10 -30 0
1 10 31 0
1 -10 -31 0
1 10 32 0
1 -10 -32 0
3 10 33 0
3 -10 -33 0
5 10 35 0
5 -10 -35 0
9 10 36 0
9 -10 -36 0
6 10 37 0
6 -10 -37 0
8 10 38 0
8 -10 -38 0
1 10 40 0
1 -10 -40 0
2 11 12 0
2 -11 -12 0
10 11 13 0
10 -11 -13 0
3 11 14 0
3 -11 -14 0
9 11 15 0
9 -11 -15 0
2 11 18 0
2 -11 -18 0
10 11 20 0
10 -11 -20 0
1 11 21 0
1 -11 -21 0
9 11 22 0
9 -11 -22 0
1 11 23 0
1 -11 -23 0
1 11 25 0
1 -11 -25 0
10 11 26 0
10 -11 -26 0
6 11 28 0
6 -11 -28 0
2 11 31 0
2 -11 -31 0
2 11 33 0
2 -11 -33 0
4 11 36 0
4 -11 -36 0
10 11 39 0
10 -11 -39 0
9 12 13 0
9 -12 -13 0
4 12 15 0
4 -12 -15 0
6 12 17 0
6 -12 -17 0
6 12 19 0
6 -12 -19 0
5 12 22 0
5 -12 -22 0
7 12 23 0
7 -12 -23 0
1 12 24 0
1 -12 -24 0
6 12 25 0
6 -12 -25 0
8 12 29 0
8 -12 -29 0
4 12 31 0
4 -12 -31 0
10 12 32 0
10 -12 -32 0
6 12 33 0
6 -12 -33 0
9 12 34 0
9 -12 -34 0
8 12 35 0
8 -12 -35 0
7 12 36 0
7 -12 -36 0
1 12 40 0
1 -12 -40 0
8 13 20 0
8 -13 -20 0
9 13 24 0
9 -13 -24 0
10 13 25 0
10 -13 -25 0
9 13 26 0
9 -13 -26 0
9 13 31 0
9 -13 -31 0
10 14 15 0
10 -14 -15 0
8 14 16 0
8 -14 -16 0
10 14 17 0
10 -14 -17 0
10 14 19 0
10 -14 -19 0
7 14 21 0
7 -14 -21 0
5 14 26 0
5 -14 -26 0
2 14 27 0
2 -14 -27 0
9 14 29 0
9 -14 -29 0
9 14 30 0
9 -14 -30 0
1 14 31 0
1 -14 -31 0
7 14 32 0
7 -14 -32 0
3 14 33 0
3 -14 -33 0
7 14 35 0
7 -14 -35 0
3 14 36 0
3 -14 -36 0
8 14 37 0
8 -14 -37 0
4 14 38 0
4 -14 -38 0
4 15 16 0
4 -15 -16 0
3 15 17 0
3 -15 -17 0
1 15 18 0
1 -15 -18 0
7 15 19 0
7 -15 -19 0
3 15 20 0
3 -15 -20 0
7 15 21 0
7 -15 -21 0
6 15 22 0
6 -15 -22 0
10 15 23 0
10 -15 -23 0
3 15 24 0
3 -15 -24 0
6 15 30 0
6 -15 -30 0
8 15 31 0
8 -15 -31 0
2 15 32 0
2 -15 -32 0
5 15 33 0
5 -15 -33 0
6 15 35 0
6 -15 -35 0
10 15 39 0
10 -15 -39 0
5 15 40 0
5 -15 -40 0
4 16 21 0
4 -16 -21 0
9 16 24 0
9 -16 -24 0
5 16 32 0
5 -16 -32 0
1 16 36 0
1 -16 -36 0
4 17 19 0
4 -17 -19 0
6 17 20 0
6 -17 -20 0
9 17 22 0
9 -17 -22 0
3 17 24 0
3 -17 -24 0
7 17 25 0
7 -17 -25 0
5 17 26 0
5 -17 -26 0
5 17 27 0
5 -17 -27 0
4 17 28 0
4 -17 -28 0
8 17 31 0
8 -17 -31 0
2 17 32 0
2 -17 -32 0
7 17 33 0
7 -17 -33 0
1 17 36 0
1 -17 -36 0
5 17 38 0
5 -17 -38 0
7 17 40 0
7 -17 -40 0
7 18 19 0
7 -18 -19 0
7 18 20 0
7 -18 -20 0
4 18 21 0
4 -18 -21 0
2 18 24 0
2 -18 -24 0
7 18 25 0
7 -18 -25 0
7 18 30 0
7 -18 -30 0
8 18 31 0
8 -18 -31 0
4 18 32 0
4 -18 -32 0
8 18 33 0
8 -18 -33 0
3 18 34 0
3 -18 -34 0
10 18 35 0
10 -18 -35 0
7 18 36 0
7 -18 -36 0
7 18 38 0
7 -18 -38 0
3 18 40 0
3 -18 -40 0
6 19 22 0
6 -19 -22 0
1 19 23 0
1 -19 -23 0
3 19 24 0
3 -19 -24 0
9 19 25 0
9 -19 -25 0
7 19 27 0
7 -19 -27 0
1 19 29 0
1 -19 -29 0
2 19 31 0
2 -19 -31 0
4 19 33 0
4 -19 -33 0
6 19 34 0
6 -19 -34 0
6 19 36 0
6 -19 -36 0
7 19 37 0
7 -19 -37 0
3 19 38 0
3 -19 -38 0
8 19 40 0
8 -19 -40 0
3 20 21 0
3 -20 -21 0
4 20 24 0
4 -20 -24 0
2 20 26 0
2 -20 -26 0
10 20 30 0
10 -20 -30 0
1 20 31 0
1 -20 -31 0
9 20 33 0
9 -20 -33 0
4 20 35 0
4 -20 -35 0
2 20 36 0
2 -20 -36 0
5 21 22 0
5 -21 -22 0
10 21 24 0
10 -21 -24 0
10 21 26 0
10 -21 -26 0
8 21 27 0
8 -21 -27 0
7 21 30 0
7 -21 -30 0
2 21 32 0
2 -21 -32 0
7 21 33 0
7 -21 -33 0
4 21 35 0
4 -21 -35 0
8 21 36 0
8 -21 -36 0
10 21 37 0
10 -21 -37 0
10 22 25 0
10 -22 -25 0
9 22 26 0
9 -22 -26 0
3 22 34 0
3 -22 -34 0
8 22 35 0
8 -22 -35 0
6 22 37 0
6 -22 -37 0
3 22 38 0
3 -22 -38 0
10 22 39 0
10 -22 -39 0
10 23 24 0
10 -23 -24 0
9 23 32 0
9 -23 -32 0
5 23 35 0
5 -23 -35 0
6 24 28 0
6 -24 -28 0
2 24 29 0
2 -24 -29 0
3 24 30 0
3 -24 -30 0
9 24 32 0
9 -24 -32 0
5 24 34 0
5 -24 -34 0
5 24 35 0
5 -24 -35 0
9 24 37 0
9 -24 -37 0
5 24 40 0
5 -24 -40 0
3 25 29 0
3 -25 -29 0
2 25 30 0
2 -25 -30 0
7 25 31 0
7 -25 -31 0
8 25 32 0
8 -25 -32 0
2 25 34 0
2 -25 -34 0
7 25 36 0
7 -25 -36 0
5 25 38 0
5 -25 -38 0
9 25 39 0
9 -25 -39 0
8 25 40 0
8 -25 -40 0
2 26 28 0
2 -26 -28 0
3 26 31 0
3 -26 -31 0
5 26 32 0
5 -26 -32 0
2 26 33 0
2 -26 -33 0
2 26 40 0
2 -26 -40 0
4 27 30 0
4 -27 -30 0
4 27 32 0
4 -27 -32 0
10 27 33 0
10 -27 -33 0
10 27 40 0
10 -27 -40 0
7 28 30 0
7 -28 -30 0
9 28 33 0
9 -28 -33 0
9 28 34 0
9 -28 -34 0
5 28 35 0
5 -28 -35 0
4 28 36 0
4 -28 -36 0
4 28 38 0
4 -28 -38 0
7 28 40 0
7 -28 -40 0
7 29 30 0
7 -29 -30 0
3 29 31 0
3 -29 -31 0
2 29 32 0
2 -29 -32 0
1 30 32 0
1 -30 -32 0
2 30 35 0
2 -30 -35 0
7 30 36 0
7 -30 -36 0
4 30 38 0
4 -30 -38 0
3 30 40 0
3 -30 -40 0
4 31 32 0
4 -31 -32 0
1 31 33 0
1 -31 -33 0
5 31 34 0
5 -31 -34 0
10 31 35 0
10 -31 -35 0
6 31 36 0
6 -31 -36 0
3 31 39 0
3 -31 -39 0
7 31 40 0
7 -31 -40 0
8 32 33 0
8 -32 -33 0
5 32 34 0
5 -32 -34 0
2 32 35 0
2 -32 -35 0
9 32 36 0
9 -32 -36 0
7 32 39 0
7 -32 -39 0
6 32 40 0
6 -32 -40 0
3 33 35 0
3 -33 -35 0
6 33 37 0
6 -33 -37 0
5 33 40 0
5 -33 -40 0
9 34 36 0
9 -34 -36 0
4 34 38 0
4 -34 -38 0
3 34 39 0
3 -34 -39 0
4 34 40 0
4 -34 -40 0
8 35 36 0
8 -35 -36 0
7 35 39 0
7 -35 -39 0
10 35 40 0
10 -35 -40 0
4 36 40 0
4 -36 -40 0
9 38 40 0
9 -38 -40 0
